p cnf 24 236
-2 1 0
-4 3 0
-6 5 0
-8 7 0
-10 9 0
-12 11 0
-14 13 0
-16 15 0
-18 17 0
-20 19 0
-22 21 0
-24 23 0
1 0
2 0
3 0
4 0
-1 -2 -5 -6 0
-1 -2 -5 -7 0
-1 -2 -5 -8 0
-1 -2 -6 -7 0
-1 -2 -6 -8 0
-1 -2 -7 -8 0
-1 -5 -6 -7 0
-1 -5 -6 -8 0
-1 -5 -7 -8 0
-1 -6 -7 -8 0
-2 -5 -6 -7 0
-2 -5 -6 -8 0
-2 -5 -7 -8 0
-2 -6 -7 -8 0
-5 -6 -7 -8 0
1 2 5 6 0
1 2 5 7 0
1 2 5 8 0
1 2 6 7 0
1 2 6 8 0
1 2 7 8 0
1 5 6 7 0
1 5 6 8 0
1 5 7 8 0
1 6 7 8 0
2 5 6 7 0
2 5 6 8 0
2 5 7 8 0
2 6 7 8 0
5 6 7 8 0
-5 -6 -9 0
-5 -6 -10 0
-5 -9 -10 0
-6 -9 -10 0
5 6 9 0
5 6 10 0
5 9 10 0
6 9 10 0
-3 -4 -11 -12 -13 -14 0
3 4 0
3 11 0
3 12 0
3 13 0
3 14 0
4 11 0
4 12 0
4 13 0
4 14 0
11 12 0
11 13 0
11 14 0
12 13 0
12 14 0
13 14 0
-7 -8 -11 -12 0
-7 -8 -11 -15 0
-7 -8 -11 -16 0
-7 -8 -11 -17 0
-7 -8 -11 -18 0
-7 -8 -12 -15 0
-7 -8 -12 -16 0
-7 -8 -12 -17 0
-7 -8 -12 -18 0
-7 -8 -15 -16 0
-7 -8 -15 -17 0
-7 -8 -15 -18 0
-7 -8 -16 -17 0
-7 -8 -16 -18 0
-7 -8 -17 -18 0
-7 -11 -12 -15 0
-7 -11 -12 -16 0
-7 -11 -12 -17 0
-7 -11 -12 -18 0
-7 -11 -15 -16 0
-7 -11 -15 -17 0
-7 -11 -15 -18 0
-7 -11 -16 -17 0
-7 -11 -16 -18 0
-7 -11 -17 -18 0
-7 -12 -15 -16 0
-7 -12 -15 -17 0
-7 -12 -15 -18 0
-7 -12 -16 -17 0
-7 -12 -16 -18 0
-7 -12 -17 -18 0
-7 -15 -16 -17 0
-7 -15 -16 -18 0
-7 -15 -17 -18 0
-7 -16 -17 -18 0
-8 -11 -12 -15 0
-8 -11 -12 -16 0
-8 -11 -12 -17 0
-8 -11 -12 -18 0
-8 -11 -15 -16 0
-8 -11 -15 -17 0
-8 -11 -15 -18 0
-8 -11 -16 -17 0
-8 -11 -16 -18 0
-8 -11 -17 -18 0
-8 -12 -15 -16 0
-8 -12 -15 -17 0
-8 -12 -15 -18 0
-8 -12 -16 -17 0
-8 -12 -16 -18 0
-8 -12 -17 -18 0
-8 -15 -16 -17 0
-8 -15 -16 -18 0
-8 -15 -17 -18 0
-8 -16 -17 -18 0
-11 -12 -15 -16 0
-11 -12 -15 -17 0
-11 -12 -15 -18 0
-11 -12 -16 -17 0
-11 -12 -16 -18 0
-11 -12 -17 -18 0
-11 -15 -16 -17 0
-11 -15 -16 -18 0
-11 -15 -17 -18 0
-11 -16 -17 -18 0
-12 -15 -16 -17 0
-12 -15 -16 -18 0
-12 -15 -17 -18 0
-12 -16 -17 -18 0
-15 -16 -17 -18 0
7 8 11 12 15 16 0
7 8 11 12 15 17 0
7 8 11 12 15 18 0
7 8 11 12 16 17 0
7 8 11 12 16 18 0
7 8 11 12 17 18 0
7 8 11 15 16 17 0
7 8 11 15 16 18 0
7 8 11 15 17 18 0
7 8 11 16 17 18 0
7 8 12 15 16 17 0
7 8 12 15 16 18 0
7 8 12 15 17 18 0
7 8 12 16 17 18 0
7 8 15 16 17 18 0
7 11 12 15 16 17 0
7 11 12 15 16 18 0
7 11 12 15 17 18 0
7 11 12 16 17 18 0
7 11 15 16 17 18 0
7 12 15 16 17 18 0
8 11 12 15 16 17 0
8 11 12 15 16 18 0
8 11 12 15 17 18 0
8 11 12 16 17 18 0
8 11 15 16 17 18 0
8 12 15 16 17 18 0
11 12 15 16 17 18 0
-9 -10 -15 -16 -19 0
-9 -10 -15 -16 -20 0
-9 -10 -15 -19 -20 0
-9 -10 -16 -19 -20 0
-9 -15 -16 -19 -20 0
-10 -15 -16 -19 -20 0
9 10 15 0
9 10 16 0
9 10 19 0
9 10 20 0
9 15 16 0
9 15 19 0
9 15 20 0
9 16 19 0
9 16 20 0
9 19 20 0
10 15 16 0
10 15 19 0
10 15 20 0
10 16 19 0
10 16 20 0
10 19 20 0
15 16 19 0
15 16 20 0
15 19 20 0
16 19 20 0
13 0
14 0
21 0
22 0
-17 -18 -21 -22 0
-17 -18 -21 -23 0
-17 -18 -21 -24 0
-17 -18 -22 -23 0
-17 -18 -22 -24 0
-17 -18 -23 -24 0
-17 -21 -22 -23 0
-17 -21 -22 -24 0
-17 -21 -23 -24 0
-17 -22 -23 -24 0
-18 -21 -22 -23 0
-18 -21 -22 -24 0
-18 -21 -23 -24 0
-18 -22 -23 -24 0
-21 -22 -23 -24 0
17 18 21 22 0
17 18 21 23 0
17 18 21 24 0
17 18 22 23 0
17 18 22 24 0
17 18 23 24 0
17 21 22 23 0
17 21 22 24 0
17 21 23 24 0
17 22 23 24 0
18 21 22 23 0
18 21 22 24 0
18 21 23 24 0
18 22 23 24 0
21 22 23 24 0
-19 -20 -23 0
-19 -20 -24 0
-19 -23 -24 0
-20 -23 -24 0
19 20 23 0
19 20 24 0
19 23 24 0
20 23 24 0
